problems/csplib-prob030/BalancedAcademicCurriculumProblem-models/compact/O2/minion/model-bacp-8-solution000001.eprime-solution
language ESSENCE' 1.0

letting curr_Function1D be
        [1, 1, 9, 9, 1, 9, 3, 8, 7, 3, 7, 7, 2, 6, 2, 2, 6, 5, 8, 5, 5, 5, 4, 4, 4, 4, 4, 4, 4, 10, 2, 3, 3, 3, 3, 3, 3,
         10, 2, 2, 2, 2, 2, 1, 1, 1, 1, 1, 1, 1;
             int(1..50)]
