problems/csplib-prob030/BalancedAcademicCurriculumProblem-models/noch/O0/minion/model-bacp-8-solution000001.solution
language Essence 1.3

letting curr be
        function(1 --> 1, 2 --> 1, 3 --> 9, 4 --> 9, 5 --> 1, 6 --> 9, 7 --> 3, 8 --> 8, 9 --> 7, 10 --> 3, 11 --> 7,
                 12 --> 7, 13 --> 2, 14 --> 6, 15 --> 2, 16 --> 2, 17 --> 6, 18 --> 5, 19 --> 8, 20 --> 5, 21 --> 5,
                 22 --> 5, 23 --> 4, 24 --> 4, 25 --> 4, 26 --> 4, 27 --> 4, 28 --> 4, 29 --> 4, 30 --> 10, 31 --> 2,
                 32 --> 3, 33 --> 3, 34 --> 3, 35 --> 3, 36 --> 3, 37 --> 3, 38 --> 10, 39 --> 2, 40 --> 2, 41 --> 2,
                 42 --> 2, 43 --> 2, 44 --> 1, 45 --> 1, 46 --> 1, 47 --> 1, 48 --> 1, 49 --> 1, 50 --> 1)
